0 76 68 57 36 49 42 39 46 82 
76 0 32 22 33 80 81 84 52 53 
68 32 0 49 35 52 24 85 35 71 
57 22 49 0 17 64 74 50 43 43 
36 33 35 17 0 20 81 61 28 53 
49 80 52 64 20 0 77 53 54 56 
42 81 24 74 81 77 0 43 32 24 
39 84 85 50 61 53 43 0 48 96 
46 52 35 43 28 54 32 48 0 73 
82 53 71 43 53 56 24 96 73 0